\ENCODING=ISO-8859-1
\Problem name: 

Minimize
 obj: [ 6 a_0_0 * a_1_1 + 6 a_0_0 * a_1_2 + 2 a_0_0 * a_1_3 + 6 a_0_0 * a_2_1
      + 6 a_0_0 * a_2_2 + 2 a_0_0 * a_2_3 + 6 a_0_1 * a_1_0 + 2 a_0_1 * a_1_2
      + 4 a_0_1 * a_1_3 + 6 a_0_1 * a_2_0 + 2 a_0_1 * a_2_2 + 4 a_0_1 * a_2_3
      + 6 a_0_2 * a_1_0 + 2 a_0_2 * a_1_1 + 4 a_0_2 * a_1_3 + 6 a_0_2 * a_2_0
      + 2 a_0_2 * a_2_1 + 4 a_0_2 * a_2_3 + 2 a_0_3 * a_1_0 + 4 a_0_3 * a_1_1
      + 4 a_0_3 * a_1_2 + 2 a_0_3 * a_2_0 + 4 a_0_3 * a_2_1 + 4 a_0_3 * a_2_2
      + 6 a_1_0 * a_2_1 + 6 a_1_0 * a_2_2 + 2 a_1_0 * a_2_3 + 6 a_1_1 * a_2_0
      + 2 a_1_1 * a_2_2 + 4 a_1_1 * a_2_3 + 6 a_1_2 * a_2_0 + 2 a_1_2 * a_2_1
      + 4 a_1_2 * a_2_3 + 2 a_1_3 * a_2_0 + 4 a_1_3 * a_2_1 + 4 a_1_3 * a_2_2
      ] / 2
Subject To
 c1: a_0_0 + a_1_0 + a_2_0  = 1
 c2: a_0_1 + a_1_1 + a_2_1  = 1
 c3: a_0_2 + a_1_2 + a_2_2  = 1
 c4: a_0_3 + a_1_3 + a_2_3  = 1
 c5: a_0_0 + a_0_1 + a_0_2 + a_0_3 <= 1
 c6: a_1_0 + a_1_1 + a_1_2 + a_1_3 <= 1
 c7: a_2_0 + a_2_1 + a_2_2 + a_2_3 <= 2
Bounds
 0 <= a_0_0 <= 1
 0 <= a_0_1 <= 1
 0 <= a_0_2 <= 1
 0 <= a_0_3 <= 1
 0 <= a_1_0 <= 1
 0 <= a_1_1 <= 1
 0 <= a_1_2 <= 1
 0 <= a_1_3 <= 1
 0 <= a_2_0 <= 1
 0 <= a_2_1 <= 1
 0 <= a_2_2 <= 1
 0 <= a_2_3 <= 1
Binaries
 a_0_0  a_0_1  a_0_2  a_0_3  a_1_0  a_1_1  a_1_2  a_1_3  a_2_0  a_2_1  a_2_2 
 a_2_3 
End
